decision_x1=[0,2];
decision_x2=[0,2];
decision_x3=[0,2];
decision_x4=[0,2];
decision_x5=[0,2];
random_y1=[0,2];
constraint_x3_x1=[
0,1,8.5|
0,2,2.7|
1,0,8.3|
1,2,3|
2,0,2.3|
2,1,3.9|
];
constraint_x3_x2=[
0,1,7.7|
0,2,9|
1,0,4.1|
1,2,6.5|
2,0,1.3|
2,1,2.8|
];
constraint_x5_x1=[
0,1,0.25|
0,2,8.3|
1,0,9.3|
1,2,2.7|
2,0,5.2|
2,1,8.7|
];
constraint_x5_x2=[
0,1,2.8|
0,2,4.2|
1,0,6.1|
1,2,0.5|
2,0,9.5|
2,1,7.7|
];
constraint_x5_x4=[
0,1,8.3|
0,2,8.2|
1,0,6.7|
1,2,9.4|
2,0,2.8|
2,1,7.7|
];
constraint_x1_y1=[
0,0,8.3|
0,1,4.1|
0,2,0.83|
1,0,4.9|
1,1,4|
1,2,6.2|
2,0,7.4|
2,1,2.7|
2,2,5.7|
];
initial_distribution_y1=[0.49,0.33,0.18];
transition_y1=[
0.21,0.5,0.29|
0.13,0.51,0.36|
0.18,0.32,0.5|
];
